NAME: cmuq-experience-25.tsp
TYPE: TSP
COMMENT: CMU-Q Experience 19-10-25
DIMENSION: 25
EDGE_WEIGHT_TYPE: EUC_2D
NODE_COORD_SECTION
0 0 118
1 -8  104
2 -32  125
3 -45    110
4 -65  119
5 -70  84
6 -58   67
7 -68   37
8 -49  12
9 -32  70
10 -29  33
11 -8   41
12 0   6.5
13 7.5  88
14 17    53
15 23  119
16 17    34
17 28  70
18 35    17.5
19 47     64
20 53    107
21 53    35
22 62    61
23 64     16
24 70     40
EOF
